SDVRP instances/custom_instances/p01_25_split0.vrp
NAME:p01_25_split
BEST_KNOWN: 0
COMMENT: 0
DIMENSION: 223
CAPACITY: 160
EDGE_WEIGHT_FORMAT: FUNCTION
EDGE_WEIGHT_TYPE: EXACT_2D
NODE_COORD_SECTION
1 0.00000 0.00000
2 32 -35
3 32 -35
4 32 -35
5 32 -35
6 39 16
7 39 16
8 39 16
9 39 16
10 -40 31
11 -40 31
12 -40 31
13 -40 31
14 -40 31
15 -40 31
16 -40 31
17 9 -6
18 9 -6
19 9 -6
20 -29 -21
21 -29 -21
22 -29 -21
23 -29 -21
24 -29 -21
25 21 22
26 21 22
27 21 22
28 21 22
29 21 22
30 20 29
31 20 29
32 20 29
33 20 29
34 20 29
35 20 29
36 37 -14
37 37 -14
38 37 -14
39 37 -14
40 37 -14
41 37 -14
42 37 -14
43 -32 -50
44 -32 -50
45 -32 -50
46 -32 -50
47 -32 -50
48 -32 -50
49 -34 -27
50 -34 -27
51 -34 -27
52 -34 -27
53 -34 -27
54 -44 -6
55 -44 -6
56 -44 -6
57 5 -6
58 5 -6
59 5 -6
60 5 -6
61 5 -6
62 -42 36
63 -42 36
64 -42 36
65 -42 36
66 27 49
67 27 49
68 27 49
69 27 49
70 34 40
71 34 40
72 34 40
73 34 40
74 46 -49
75 46 -49
76 46 -49
77 46 -49
78 46 -49
79 46 -49
80 -11 50
81 -11 50
82 -11 50
83 -11 50
84 -42 1
85 -42 1
86 -42 1
87 -42 1
88 35 -6
89 35 -6
90 35 -6
91 -27 -37
92 -27 -37
93 -27 -37
94 38 45
95 -49 -45
96 -49 -45
97 -49 -45
98 -49 -45
99 21 -14
100 21 -14
101 21 -14
102 21 -14
103 21 -14
104 31 20
105 31 20
106 31 20
107 31 20
108 -43 28
109 -43 28
110 -43 28
111 -43 28
112 -43 28
113 -40 8
114 -40 8
115 -40 8
116 -40 8
117 -40 8
118 -40 8
119 29 -12
120 29 -12
121 29 -12
122 29 -12
123 42 28
124 42 28
125 42 28
126 29 44
127 29 44
128 29 44
129 29 44
130 -34 23
131 -34 23
132 -34 23
133 -34 23
134 44 14
135 44 14
136 44 14
137 44 14
138 44 14
139 31 47
140 31 47
141 31 47
142 31 47
143 31 47
144 31 47
145 -21 41
146 -21 41
147 -21 41
148 -21 41
149 -21 41
150 -21 41
151 -40 32
152 -40 32
153 5 13
154 5 13
155 5 13
156 5 13
157 13 -21
158 13 -21
159 13 -21
160 -42 49
161 -42 49
162 -42 49
163 -42 49
164 -42 49
165 -3 -6
166 -3 -6
167 -3 -6
168 46 37
169 46 37
170 46 37
171 46 37
172 50 -29
173 50 -29
174 50 -29
175 50 -29
176 50 -29
177 -39 46
178 -39 46
179 -39 46
180 -13 18
181 -13 18
182 -13 18
183 -13 18
184 -15 -17
185 -15 -17
186 -15 -17
187 -15 -17
188 -47 32
189 -47 32
190 -47 32
191 42 -41
192 42 -41
193 42 -41
194 42 -41
195 42 -41
196 42 -41
197 42 -41
198 -28 2
199 -28 2
200 -28 2
201 -28 2
202 -28 2
203 -28 2
204 -7 3
205 -7 3
206 -7 3
207 31 30
208 31 30
209 31 30
210 31 30
211 31 30
212 26 0
213 26 0
214 26 0
215 26 0
216 26 0
217 26 0
218 26 0
219 -38 -39
220 -38 -39
221 -38 -39
222 -38 -39
223 -38 -39
DEMAND_SECTION
1 0
2 32
3 32
4 8
5 2
6 16
7 2
8 2
9 2
10 32
11 32
12 8
13 2
14 2
15 2
16 1
17 32
18 2
19 1
20 16
21 2
22 2
23 2
24 1
25 32
26 16
27 8
28 2
29 2
30 32
31 8
32 2
33 2
34 2
35 1
36 32
37 16
38 8
39 2
40 2
41 2
42 1
43 32
44 32
45 8
46 2
47 2
48 2
49 16
50 8
51 2
52 2
53 2
54 32
55 32
56 2
57 32
58 32
59 2
60 2
61 1
62 32
63 16
64 8
65 1
66 16
67 2
68 2
69 1
70 32
71 8
72 2
73 2
74 32
75 8
76 2
77 2
78 2
79 1
80 32
81 16
82 2
83 2
84 32
85 16
86 8
87 1
88 16
89 8
90 1
91 32
92 16
93 1
94 32
95 32
96 16
97 2
98 2
99 32
100 32
101 8
102 2
103 2
104 32
105 16
106 8
107 2
108 32
109 8
110 2
111 2
112 1
113 32
114 32
115 8
116 2
117 2
118 1
119 32
120 32
121 2
122 2
123 32
124 8
125 1
126 32
127 32
128 2
129 1
130 32
131 2
132 2
133 2
134 16
135 8
136 2
137 2
138 1
139 32
140 32
141 8
142 2
143 2
144 2
145 32
146 16
147 2
148 2
149 2
150 1
151 32
152 1
153 32
154 2
155 2
156 2
157 32
158 16
159 1
160 32
161 16
162 2
163 2
164 2
165 32
166 32
167 2
168 32
169 16
170 8
171 1
172 16
173 8
174 2
175 2
176 2
177 32
178 32
179 2
180 32
181 16
182 8
183 2
184 32
185 32
186 8
187 1
188 16
189 8
190 2
191 32
192 16
193 8
194 2
195 2
196 2
197 1
198 32
199 16
200 2
201 2
202 2
203 1
204 32
205 2
206 2
207 32
208 16
209 2
210 2
211 2
212 32
213 32
214 8
215 2
216 2
217 2
218 1
219 32
220 2
221 2
222 2
223 1
DEPOT_SECTION
1
-1
EOF