SDVRP instances/custom_instances/p01_25_split0.sol
222 -2 1 38 41 35 37 39 40 36 87 88 89 -4 3 192 193 191 195 196 194 190 75 76 74 73 77 78 174 172 173 175 171 121 120 -6 8 5 7 133 135 134 137 136 124 122 123 103 105 104 106 -18 17 16 100 101 98 102 99 156 157 158 -19 20 21 23 22 49 48 50 52 51 94 97 95 96 222 220 218 219 221 185 -26 24 25 28 27 209 208 210 207 206 30 29 -31 32 33 34 128 127 66 67 65 68 141 143 142 138 139 140 69 72 71 70 -45 47 46 42 44 43 92 91 90 183 -59 60 58 57 56 166 165 164 -85 84 86 83 54 53 55 184 186 -110 109 107 111 108 188 187 189 64 62 63 61 150 -115 113 116 112 117 114 197 200 202 199 201 198 -118 119 212 211 213 216 215 214 217 -151 9 13 10 14 15 12 11 132 131 129 130 203 204 205 -152 153 80 79 82 81 146 147 148 149 144 145 182 180 -155 154 125 126 93 167 168 170 169 -160 161 163 162 159 177 176 178 181 179 0 





OBJ=
1773.906
BEST_KNOWN=
0.000